Problem:    
Rows:       248
Columns:    89 (72 integer, 72 binary)
Non-zeros:  820
Status:     INTEGER OPTIMAL
Objective:  value = 78.496 (MINimum)

   No.   Row name        Activity     Lower bound   Upper bound
------ ------------    ------------- ------------- -------------
     1 r.5                   578.496             0               
     2 r.6                  -453.801      -481.565               
     3 r.7                    78.496             0               
     4 r.8                   -10.459      -484.956               
     5 r.9                   578.496             0               
     6 r.10                 -475.236       -480.86               
     7 r.11                   78.496             0               
     8 r.12                        9      -483.541               
     9 r.13                   78.496             0               
    10 r.14                 -10.9703      -465.549               
    11 r.15                  578.496             0               
    12 r.16                 -438.994      -477.117               
    13 r.17                   78.496             0               
    14 r.18                 -404.248      -482.744               
    15 r.19                  578.496             0               
    16 r.20                 -464.877      -487.026               
    17 r.21                   78.496             0               
    18 r.22                  17.6232      -483.406               
    19 r.23                  578.496             0               
    20 r.24                 -489.851      -489.851               
    21 r.25                  578.496             0               
    22 r.26                 -421.504      -470.703               
    23 r.27                   78.496             0               
    24 r.28                 -379.963      -458.459               
    25 r.29                   78.496             0               
    26 r.30                  27.7637      -459.073               
    27 r.31                  578.496             0               
    28 r.32                 -421.504       -485.51               
    29 r.33                   78.496             0               
    30 r.34                  5.62325      -499.675               
    31 r.35                  578.496             0               
    32 r.36                 -494.377       -495.41               
    33 r.37                        1             1             = 
    34 r.38                        1             1             = 
    35 r.39                        1             1             = 
    36 r.40                        1             1             = 
    37 r.41                        1             1             = 
    38 r.42                        1             1             = 
    39 r.43                        1             1             = 
    40 r.44                        1             1             = 
    41 r.45                  478.565       19.1404               
    42 r.46                 -481.565      -481.565               
    43 r.47                   19.459        16.459               
    44 r.48                  -16.459      -484.956               
    45 r.49                  442.831       34.4507               
    46 r.50                 -442.831      -481.565               
    47 r.51                   71.465        22.883               
    48 r.52                  -71.465      -484.956               
    49 r.53                  49.5528       17.2556               
    50 r.54                 -49.5528      -481.565               
    51 r.55                   45.582        12.974               
    52 r.56                  -45.582      -484.956               
    53 r.57                  465.424       16.5935               
    54 r.58                 -459.424      -481.565               
    55 r.59                   26.608        10.149               
    56 r.60                  -32.608      -484.956               
    57 r.61                 -467.703      -467.703               
    58 r.62                 -426.162      -455.459               
    59 r.63                 -411.045      -467.703               
    60 r.64                 -369.504      -455.459               
    61 r.65                  481.565       40.9271               
    62 r.66                 -481.565      -481.565               
    63 r.67                   88.955         14.49               
    64 r.68                  -88.955      -484.956               
    65 r.69                 -459.424      -478.565               
    66 r.70                 -16.0822      -481.956               
    67 r.71                 -459.424      -478.565               
    68 r.72                 -16.0822      -481.956               
    69 r.73                  18.4352       18.4352               
    70 r.74                 -18.4352       -480.86               
    71 r.75                  483.541        15.044               
    72 r.76                 -483.541      -483.541               
    73 r.77                  461.266       34.4507               
    74 r.78                 -461.266       -480.86               
    75 r.79                   55.006        22.883               
    76 r.80                  -55.006      -483.541               
    77 r.81                   67.988       17.2556               
    78 r.82                  -67.988       -480.86               
    79 r.83                   29.123        12.974               
    80 r.84                  -29.123      -483.541               
    81 r.85                   483.86       16.5935               
    82 r.86                  -477.86       -480.86               
    83 r.87                   10.149        10.149               
    84 r.88                  -16.149      -483.541               
    85 r.89                  50.7323       29.2971               
    86 r.90                 -50.7323       -480.86               
    87 r.91                  114.037        41.541               
    88 r.92                 -114.037      -483.541               
    89 r.93                        0      -456.073               
    90 r.94                 -449.268       -482.51               
    91 r.95                  21.7637      -456.073               
    92 r.96                 -427.504       -482.51               
    93 r.97                  -477.86       -477.86               
    94 r.98                 0.376753      -480.541               
    95 r.99                  -477.86       -477.86               
    96 r.100                0.376753      -480.541               
    97 r.101                 57.1691       18.4352               
    98 r.102                -57.1691      -465.549               
    99 r.103                 428.535        15.044               
   100 r.104                -428.535      -477.117               
   101 r.105                 35.7339       19.1404               
   102 r.106                -38.7339      -465.549               
   103 r.107                 447.994        16.459               
   104 r.108                -444.994      -477.117               
   105 r.109                 393.278      -462.549               
   106 r.110                -34.7456      -474.117               
   107 r.111                -46.0933      -462.549               
   108 r.112                -474.117      -474.117               
   109 r.113                 22.5935       16.5935               
   110 r.114                -16.5935      -465.549               
   111 r.115                 455.143        10.149               
   112 r.116                -461.143      -477.117               
   113 r.117                 89.4663       29.2971               
   114 r.118                -89.4663      -465.549               
   115 r.119                  59.031        41.541               
   116 r.120                 -59.031      -477.117               
   117 r.121                 38.7339      -456.073               
   118 r.122                -410.534       -482.51               
   119 r.123                -33.2423      -456.073               
   120 r.124                 -482.51       -482.51               
   121 r.125                -16.5935      -462.549               
   122 r.126                -444.617      -474.117               
   123 r.127                -16.5935      -462.549               
   124 r.128                -444.617      -474.117               
   125 r.129                 450.447       18.4352               
   126 r.130                -450.447      -482.744               
   127 r.131                 454.418        15.044               
   128 r.132                -454.418      -487.026               
   129 r.133                 429.012       19.1404               
   130 r.134                -432.012      -482.744               
   131 r.135                 473.877        16.459               
   132 r.136                -470.877      -487.026               
   133 r.137                 393.278      -462.549               
   134 r.138                -34.7456      -474.117               
   135 r.139                -46.0933      -462.549               
   136 r.140                -474.117      -474.117               
   137 r.141                 415.872       16.5935               
   138 r.142                -409.872      -482.744               
   139 r.143                 481.026        10.149               
   140 r.144                -487.026      -487.026               
   141 r.145                 482.744       29.2971               
   142 r.146                -482.744      -482.744               
   143 r.147                  84.914        41.541               
   144 r.148                 -84.914      -487.026               
   145 r.149                 432.012      -456.073               
   146 r.150                -17.2556       -482.51               
   147 r.151                -7.35932      -456.073               
   148 r.152                -456.627       -482.51               
   149 r.153                -409.872      -476.744               
   150 r.154                  -470.5      -481.026               
   151 r.155                -409.872      -476.744               
   152 r.156                  -470.5      -481.026               
   153 r.157                 40.5756       18.4352               
   154 r.158                -40.5756      -483.406               
   155 r.159                 467.392        15.044               
   156 r.160                -467.392      -489.851               
   157 r.161                 19.1404       19.1404               
   158 r.162                -22.1404      -483.406               
   159 r.163                 486.851        16.459               
   160 r.164                -483.851      -489.851               
   161 r.165                 483.406       34.4507               
   162 r.166                -483.406      -483.406               
   163 r.167                  38.857        22.883               
   164 r.168                 -38.857      -489.851               
   165 r.169                 90.1284       17.2556               
   166 r.170                -90.1284      -483.406               
   167 r.171                  12.974        12.974               
   168 r.172                 -12.974      -489.851               
   169 r.173                -427.127      -467.703               
   170 r.174                -385.586      -455.459               
   171 r.175                -443.653      -467.703               
   172 r.176                -402.112      -455.459               
   173 r.177                 22.1404      -456.073               
   174 r.178                -427.127       -482.51               
   175 r.179                 5.61468      -456.073               
   176 r.180                -443.653       -482.51               
   177 r.181                       0      -477.406               
   178 r.182                -483.474      -483.851               
   179 r.183                       0      -477.406               
   180 r.184                -483.474      -483.851               
   181 r.185                -467.703      -467.703               
   182 r.186                -426.162      -455.459               
   183 r.187                -411.045      -467.703               
   184 r.188                -369.504      -455.459               
   185 r.189                 446.268       19.1404               
   186 r.190                -449.268      -470.703               
   187 r.191                 388.963        16.459               
   188 r.192                -385.963      -458.459               
   189 r.193                 410.534       34.4507               
   190 r.194                -410.534      -470.703               
   191 r.195                 440.969        22.883               
   192 r.196                -440.969      -458.459               
   193 r.197                 17.2556       17.2556               
   194 r.198                -17.2556      -470.703               
   195 r.199                 415.086        12.974               
   196 r.200                -415.086      -458.459               
   197 r.201                -427.127      -467.703               
   198 r.202                -385.586      -455.459               
   199 r.203                -443.653      -467.703               
   200 r.204                -402.112      -455.459               
   201 r.205                 449.268       40.9271               
   202 r.206                -449.268      -470.703               
   203 r.207                 458.459         14.49               
   204 r.208                -458.459      -458.459               
   205 r.209                 18.4352       18.4352               
   206 r.210                -18.4352      -459.073               
   207 r.211                 411.045        15.044               
   208 r.212                -411.045       -485.51               
   209 r.213                       0      -456.073               
   210 r.214                -449.268       -482.51               
   211 r.215                 21.7637      -456.073               
   212 r.216                -427.504       -482.51               
   213 r.217                 38.7339      -456.073               
   214 r.218                -410.534       -482.51               
   215 r.219                -33.2423      -456.073               
   216 r.220                 -482.51       -482.51               
   217 r.221                 432.012      -456.073               
   218 r.222                -17.2556       -482.51               
   219 r.223                -7.35932      -456.073               
   220 r.224                -456.627       -482.51               
   221 r.225                 22.1404      -456.073               
   222 r.226                -427.127       -482.51               
   223 r.227                 5.61468      -456.073               
   224 r.228                -443.653       -482.51               
   225 r.229                 50.7323       29.2971               
   226 r.230                -50.7323      -459.073               
   227 r.231                  41.541        41.541               
   228 r.232                 -41.541       -485.51               
   229 r.233                -459.424      -478.565               
   230 r.234                -16.0822      -481.956               
   231 r.235                -459.424      -478.565               
   232 r.236                -16.0822      -481.956               
   233 r.237                 -477.86       -477.86               
   234 r.238                0.376753      -480.541               
   235 r.239                 -477.86       -477.86               
   236 r.240                0.376753      -480.541               
   237 r.241                -16.5935      -462.549               
   238 r.242                -444.617      -474.117               
   239 r.243                -16.5935      -462.549               
   240 r.244                -444.617      -474.117               
   241 r.245                -409.872      -476.744               
   242 r.246                  -470.5      -481.026               
   243 r.247                -409.872      -476.744               
   244 r.248                  -470.5      -481.026               
   245 r.249                       0      -477.406               
   246 r.250                -483.474      -483.851               
   247 r.251                       0      -477.406               
   248 r.252                -483.474      -483.851               

   No. Column name       Activity     Lower bound   Upper bound
------ ------------    ------------- ------------- -------------
     1 tt                     78.496             0               
     2 s_1_1        *              1             0             1 
     3 t_1_1                 32.2971             0               
     4 s_1_6        *              1             0             1 
     5 s_2_1        *              0             0             1 
     6 t_2_1                  88.955             0               
     7 s_2_6        *              0             0             1 
     8 s_1_2        *              1             0             1 
     9 t_1_2                 50.7323             0               
    10 s_1_7        *              0             0             1 
    11 s_2_2        *              0             0             1 
    12 t_2_2                  72.496             0               
    13 s_2_7        *              1             0             1 
    14 s_1_3        *              0             0             1 
    15 t_1_3                 89.4663             0               
    16 s_2_3        *              1             0             1 
    17 t_2_3                   17.49             0               
    18 s_1_4        *              0             0             1 
    19 t_1_4                 482.744             0               
    20 s_2_4        *              1             0             1 
    21 t_2_4                  43.373             0               
    22 s_1_5        *              0             0             1 
    23 t_1_5                 72.8728             0               
    24 s_2_5        *              1             0             1 
    25 t_2_5                  56.347             0               
    26 t_1_6                       0             0               
    27 t_2_6                 458.459             0               
    28 t_1_7                 50.7323             0               
    29 t_2_7                       0             0               
    30 s_1_8        *              0             0             1 
    31 t_1_8                 72.8728             0               
    32 s_2_8        *              1             0             1 
    33 t_2_8                 72.8728             0               
    34 u_1_1_2      *              1             0             1 
    35 u_2_1_2      *              0             0             1 
    36 u_1_1_3      *              1             0             1 
    37 u_2_1_3      *              0             0             1 
    38 u_1_1_4      *              1             0             1 
    39 u_2_1_4      *              0             0             1 
    40 u_1_1_5      *              1             0             1 
    41 u_2_1_5      *              0             0             1 
    42 u_1_1_7      *              1             0             1 
    43 u_2_1_7      *              0             0             1 
    44 u_1_2_1      *              0             0             1 
    45 u_2_2_1      *              1             0             1 
    46 u_1_2_3      *              1             0             1 
    47 u_2_2_3      *              0             0             1 
    48 u_1_2_4      *              1             0             1 
    49 u_2_2_4      *              0             0             1 
    50 u_1_2_5      *              1             0             1 
    51 u_2_2_5      *              0             0             1 
    52 u_1_2_6      *              0             0             1 
    53 u_2_2_6      *              1             0             1 
    54 u_1_3_1      *              0             0             1 
    55 u_2_3_1      *              1             0             1 
    56 u_1_3_2      *              0             0             1 
    57 u_2_3_2      *              1             0             1 
    58 u_1_3_5      *              0             0             1 
    59 u_2_3_5      *              1             0             1 
    60 u_1_3_6      *              0             0             1 
    61 u_2_3_6      *              1             0             1 
    62 u_1_4_1      *              0             0             1 
    63 u_2_4_1      *              1             0             1 
    64 u_1_4_2      *              0             0             1 
    65 u_2_4_2      *              1             0             1 
    66 u_1_4_5      *              0             0             1 
    67 u_2_4_5      *              1             0             1 
    68 u_1_4_6      *              0             0             1 
    69 u_2_4_6      *              1             0             1 
    70 u_1_5_1      *              0             0             1 
    71 u_2_5_1      *              1             0             1 
    72 u_1_5_2      *              0             0             1 
    73 u_2_5_2      *              1             0             1 
    74 u_1_5_3      *              1             0             1 
    75 u_2_5_3      *              0             0             1 
    76 u_1_5_4      *              1             0             1 
    77 u_2_5_4      *              0             0             1 
    78 u_1_6_2      *              1             0             1 
    79 u_2_6_2      *              0             0             1 
    80 u_1_6_3      *              1             0             1 
    81 u_2_6_3      *              0             0             1 
    82 u_1_6_4      *              1             0             1 
    83 u_2_6_4      *              0             0             1 
    84 u_1_6_7      *              1             0             1 
    85 u_2_6_7      *              0             0             1 
    86 u_1_7_1      *              0             0             1 
    87 u_2_7_1      *              1             0             1 
    88 u_1_7_6      *              0             0             1 
    89 u_2_7_6      *              1             0             1 

Integer feasibility conditions:

KKT.PE: max.abs.err = 1.14e-13 on row 53
        max.rel.err = 1.07e-16 on row 54
        High quality

KKT.PB: max.abs.err = 5.68e-14 on row 20
        max.rel.err = 1.16e-16 on row 20
        High quality

End of output
